9 36 0
0 1 2
0 2 3
0 3 4
0 4 5
0 5 6
0 6 7
0 7 8
0 8 9
1 2 3
1 3 2
1 4 5
1 5 1
1 6 6
1 7 8
1 8 4
2 3 1
2 4 2
2 5 4
2 6 6
2 7 2
2 8 1
3 4 3
3 5 7
3 6 6
3 7 1
3 8 8
4 5 1
4 6 5
4 7 7
4 8 2
5 6 3
5 7 6
5 8 4
6 7 5
6 8 2
7 8 6
